p cnf 13 13
-4 6 1 9 -2 -8 10 -13 12 -11 -5 0
1 -4 -2 7 9 -3 -6 -5 11 10 -8 0
-5 7 -2 -6 -10 -8 -13 4 -3 1 -9 0
-3 5 1 10 2 4 7 -9 -8 12 6 0
1 10 -2 -3 8 6 13 5 4 9 7 0
2 -8 -3 -1 -5 13 10 9 -6 -4 7 0
1 -3 7 2 8 -13 -10 11 -5 4 -6 0
8 -1 4 13 -5 -3 -6 -7 12 2 -11 0
-2 1 -6 9 13 -11 12 -7 -10 8 -5 0
-8 -1 5 2 11 -7 -3 -4 10 6 9 0
3 -1 2 13 4 6 9 5 -12 10 7 0
-1 3 9 -8 2 -4 -11 -7 6 12 -5 0
-1 11 4 2 10 8 9 12 13 6 3 0
